p tw 160 2401 3 
1 8 
1 9 
2 4 
2 7 
2 10 
3 8 
3 10 
4 7 
4 9 
5 9 
5 10 
5 15 
6 7 
6 8 
6 16 
11 18 
11 19 
11 21 
12 17 
12 20 
12 22 
13 18 
13 20 
13 23 
14 17 
14 19 
14 24 
15 19 
15 20 
16 17 
16 18 
21 28 
21 29 
22 27 
22 30 
23 28 
23 30 
24 27 
24 29 
25 29 
25 30 
25 35 
26 27 
26 28 
26 36 
31 38 
31 39 
31 41 
32 37 
32 40 
32 42 
33 38 
33 40 
33 43 
34 37 
34 39 
34 44 
35 39 
35 40 
36 37 
36 38 
41 48 
41 49 
42 47 
42 50 
43 48 
43 50 
44 47 
44 49 
45 49 
45 50 
45 55 
46 47 
46 48 
46 56 
51 58 
51 59 
51 61 
52 57 
52 60 
52 62 
53 58 
53 60 
53 63 
54 57 
54 59 
54 64 
55 59 
55 60 
56 57 
56 58 
61 68 
61 69 
62 67 
62 70 
63 68 
63 70 
64 67 
64 69 
65 69 
65 70 
65 75 
66 67 
66 68 
66 76 
71 78 
71 79 
71 81 
72 77 
72 80 
72 82 
73 78 
73 80 
73 83 
74 77 
74 79 
74 84 
75 79 
75 80 
76 77 
76 78 
81 88 
81 89 
82 87 
82 90 
83 88 
83 90 
84 87 
84 89 
85 89 
85 90 
85 95 
86 87 
86 88 
86 96 
91 98 
91 99 
91 101 
92 97 
92 100 
92 102 
93 98 
93 100 
93 103 
94 97 
94 99 
94 104 
95 99 
95 100 
96 97 
96 98 
101 108 
101 109 
102 107 
102 110 
103 108 
103 110 
104 107 
104 109 
105 109 
105 110 
105 115 
106 107 
106 108 
106 116 
111 118 
111 119 
111 121 
112 117 
112 120 
112 122 
113 118 
113 120 
113 123 
114 117 
114 119 
114 124 
115 119 
115 120 
116 117 
116 118 
121 128 
121 129 
122 127 
122 130 
123 128 
123 130 
124 127 
124 129 
125 129 
125 130 
125 135 
126 127 
126 128 
126 136 
131 138 
131 139 
131 141 
132 137 
132 140 
132 142 
133 138 
133 140 
133 143 
134 137 
134 139 
134 144 
135 139 
135 140 
136 137 
136 138 
141 148 
141 149 
142 147 
142 150 
143 148 
143 150 
144 147 
144 149 
145 149 
145 150 
145 155 
146 147 
146 148 
146 156 
151 153 
151 158 
151 159 
152 154 
152 157 
152 160 
153 158 
153 160 
154 157 
154 159 
155 159 
155 160 
156 157 
156 158 
